<number of tasks>
50

<cycle time>
1000

<order strength>
0.196


<task times>
1 346
2 647
3 543
4 456
5 379
6 679
7 397
8 359
9 563
10 579
11 418
12 380
13 547
14 625
15 777
16 457
17 556
18 408
19 500
20 723
21 431
22 284
23 552
24 477
25 595
26 601
27 358
28 496
29 463
30 514
31 491
32 374
33 373
34 585
35 614
36 549
37 689
38 555
39 292
40 610
41 543
42 361
43 295
44 494
45 451
46 629
47 541
48 571
49 345
50 382

<precedence relations>
1,5
2,6
3,8
4,7
4,9
4,10
4,37
5,13
6,15
7,11
8,12
9,13
9,16
9,17
10,14
10,31
11,18
12,20
13,21
13,24
13,25
14,19
14,22
14,23
15,23
15,43
17,50
18,27
19,28
20,29
21,26
21,32
22,30
24,31
25,32
25,38
26,33
27,35
28,36
29,37
30,34
31,38
31,39
33,41
34,40
35,43
38,42
38,44
38,45
39,46
40,47
44,48
45,50
46,48
46,49

<end>
